HUN,8,6,887
2,25,1,26,5,26,3,24,0,28,4,28
5,28,1,30,3,27,0,25,2,29,4,24
5,24,3,28,4,27,2,24,0,25,1,28
3,30,4,30,5,27,2,26,1,24,0,23
2,27,3,27,5,23,0,22,4,28,1,30
3,30,0,28,4,26,2,30,5,21,1,29
1,24,2,30,3,28,5,25,0,30,4,22
1,26,5,26,4,23,3,27,0,27,2,26
